606351
56,18,54,175,92,53,100,216,105,202,99,190,66,24,219,141,106,128,41,222,77,121,180,158,82,2,115,149,132,80,52,221,213,93,168,172,204,230,45,212,104,38,103,187,12,146,224,129,153,228,88,109,90,186,171,150,170,142,4,21,217,33,203,6,68,9,101,184,116,161,205,34,75,215,78,55,130,81,40,27,169,102,62,151,87,35,94,108,50,28,37,192,179,196,107,89,166,96,91,144,26,22,20,117,145,211,156,5,64,44,223,176,17,47,225,48,111,134,19,227,125,165,194,13,220,30,15,137,138,3,60,185,16,189,208,159,23,69,226,177,122,152,191,10,201,8,97,120,110,14,164,154,65,200,198,114,119,29,174,57,76,143,197,214,46,11,139,58,59,167,79,95,84,193,195,188,85,123,25,61,182,148,131,173,124,181,136,206,218,86,70,126,209,73,113,160,42,51,98,199,178,31,43,147,127,163,67,207,39,74,157,83,135,140,71,49,118,32,72,63,210,183,36,7,1,162,229,133,112,155